10J3M/DAT/10J3MNLL-12.dat
10 3
29.6212 29.6212
27.2138 27.2138
32.4438 32.4438
17.6885 17.6885
16.3078 16.3078
12.1163 12.1163
22.3762 22.3762
29.5932 29.5932
30.1847 30.1847
17.0674 17.0674
78.2043