10J3M/SOL/10J3MNLL-12.sol
solution status: optimal solution found
objective value:                              92.8003
x#1#2                                               1 	(obj:0)
x#2#2                                               1 	(obj:0)
x#3#3                               0.999997077168595 	(obj:0)
x#4#1                               0.694212394023916 	(obj:0)
x#4#2                               0.305787605976084 	(obj:0)
x#5#2                                               1 	(obj:0)
x#6#1                                               1 	(obj:0)
x#7#2                               0.208035848961738 	(obj:0)
x#7#3                               0.791964151038262 	(obj:0)
x#8#1                                               1 	(obj:0)
x#9#1                                               1 	(obj:0)
x#10#3                                              1 	(obj:0)
z                                             92.8003 	(obj:1)
